exp/ssat-benchmarks/myssat/rawlog/ere-MaxCount/QIF-CVE-2009-3002.sdimacs.log
ssat_solver_solve2
#level: 3
Abc_NtkNodeNum(s->pNtk): 529  , BDD limit: 10240
Build BDD success
level 2: 587 element
Exist
level 1: 240 element
Random
level 0: 288 element
Exist
c ssat solving in ABC
#var: 971
s SATISFIABLE
  > Upper bound = 1.000000e+00
  > Lower bound = 1.000000e+00
FINISHED CPU 2.24 MEM 92472 MAXMEM 92472 STALE 0 MAXMEM_RSS 49440
<time name="ALL">2330</time>
real 2.46
user 2.80
sys 0.96
